qbf_easy_train/easy_2335_SAT.qdimacs
p cnf 32 88
a 2 20 15 0
e 1 3 4 5 6 7 8 9 10 11 12 13 14 16 17 18 19 21 22 23 24 25 26 27 28 29 30 31 32 0
3 1 0
3 2 0
-1 -2 -3 0
1 -4 0
-1 -4 0
-4 -5 -6 0
4 5 -6 0
-4 5 6 0
4 -5 6 0
7 -2 0
7 6 0
2 -6 -7 0
-9 4 0
-9 -8 0
-4 8 9 0
-7 9 -10 0
7 -9 -10 0
-7 -9 10 0
7 9 10 0
12 6 0
12 -2 0
-6 2 -12 0
13 11 0
13 -12 0
-11 12 -13 0
-15 -5 0
-15 -14 0
5 14 15 0
16 13 0
16 -15 0
-13 15 -16 0
10 16 -17 0
-10 -16 -17 0
10 -16 17 0
-10 16 17 0
1 -18 -19 0
-1 18 -19 0
1 18 19 0
-1 -18 19 0
20 -4 -21 0
-20 4 -21 0
20 4 21 0
-20 -4 21 0
-19 21 -22 0
19 -21 -22 0
-19 -21 22 0
19 21 22 0
23 17 0
23 22 0
-17 -22 -23 0
1 -12 -24 0
-1 12 -24 0
1 12 24 0
-1 -12 24 0
24 -25 0
-24 -25 0
26 25 0
26 1 0
-25 -1 -26 0
27 4 0
27 -12 0
-4 12 -27 0
28 11 0
28 1 0
-11 -1 -28 0
27 28 -29 0
-27 -28 -29 0
27 -28 29 0
-27 28 29 0
30 26 0
30 29 0
-26 -29 -30 0
31 23 0
31 30 0
-23 -30 -31 0
-3 31 -32 0
3 -31 -32 0
-3 -31 32 0
3 31 32 0
-20 -19 -17 28 -24 -21 -13 4 0
32 -25 -28 -4 0
3 2 -12 0
3 -20 -1 5 27 -12 0
13 15 -27 -8 5 11 0
8 31 13 -14 -22 9 23 0
31 -17 -23 20 -11 0
-17 -28 2 30 -20 0
32 0
