sat_easy_train/easy_2335_SAT.dimacs
p cnf 150 514
-4 -2 0
-4 3 0
2 -3 4 0
5 1 0
5 4 0
-1 -4 -5 0
-8 6 0
-8 -7 0
-6 7 8 0
4 9 -10 0
-4 -9 -10 0
4 -9 10 0
-4 9 10 0
12 -10 0
12 -11 0
10 11 -12 0
-13 8 0
-13 -12 0
-8 12 13 0
16 -15 0
16 3 0
15 -3 -16 0
17 -14 0
17 16 0
14 -16 -17 0
18 -3 0
18 17 0
3 -17 -18 0
-19 -18 0
-19 -17 0
18 17 19 0
-20 5 0
-20 19 0
-5 -19 20 0
-21 13 0
-21 20 0
-13 -20 21 0
-22 5 0
-22 21 0
-5 -21 22 0
-23 -14 0
-23 -14 0
14 23 0
-24 23 0
-24 18 0
-23 -18 24 0
25 24 0
25 7 0
-24 -7 -25 0
-22 25 -26 0
22 -25 -26 0
-22 -25 26 0
22 25 26 0
-27 20 0
-27 -18 0
-20 18 27 0
-28 -26 0
-28 27 0
26 -27 28 0
-30 29 0
-30 -15 0
-29 15 30 0
30 -9 -31 0
-30 9 -31 0
30 9 31 0
-30 -9 31 0
30 -31 -32 0
-30 31 -32 0
30 31 32 0
-30 -31 32 0
-33 32 0
-33 30 0
-32 -30 33 0
34 6 -35 0
-34 -6 -35 0
34 -6 35 0
-34 6 35 0
-36 -37 -38 0
36 37 -38 0
-36 37 38 0
36 -37 38 0
35 -38 -39 0
-35 38 -39 0
35 38 39 0
-35 -38 39 0
-39 -34 -40 0
39 34 -40 0
-39 34 40 0
39 -34 40 0
-41 33 0
-41 -40 0
-33 40 41 0
-42 28 0
-42 -41 0
-28 41 42 0
-43 17 0
-43 16 0
-17 -16 43 0
-44 43 0
-44 20 0
-43 -20 44 0
-31 44 -45 0
31 -44 -45 0
-31 -44 45 0
31 44 45 0
46 -35 0
46 36 0
35 -36 -46 0
47 37 0
47 36 0
-37 -36 -47 0
48 -35 0
48 -47 0
35 47 -48 0
-46 -48 -49 0
46 48 -49 0
-46 48 49 0
46 -48 49 0
34 15 -50 0
-34 -15 -50 0
34 -15 50 0
-34 15 50 0
51 -16 0
51 -3 0
16 3 -51 0
-52 2 0
-52 -51 0
-2 51 52 0
-34 -52 -53 0
34 52 -53 0
-34 52 53 0
34 -52 53 0
-54 2 0
-54 -3 0
-2 3 54 0
55 53 0
55 -54 0
-53 54 -55 0
-50 -55 -56 0
50 55 -56 0
-50 55 56 0
50 -55 56 0
57 4 0
57 15 0
-4 -15 -57 0
58 -57 0
58 51 0
57 -51 -58 0
-59 56 0
-59 58 0
-56 -58 59 0
60 -7 0
60 24 0
7 -24 -60 0
-57 -60 -61 0
57 60 -61 0
-57 60 61 0
57 -60 61 0
62 59 0
62 61 0
-59 -61 -62 0
-63 49 0
-63 -62 0
-49 62 63 0
-35 -10 -64 0
35 10 -64 0
-35 10 64 0
35 -10 64 0
65 15 0
65 64 0
-15 -64 -65 0
-66 -11 0
-66 -35 0
11 35 66 0
67 -35 0
67 -66 0
35 66 -67 0
-68 36 0
-68 -67 0
-36 67 68 0
-68 -17 -69 0
68 17 -69 0
-68 17 69 0
68 -17 69 0
-70 -69 0
-70 38 0
69 -38 70 0
-71 -65 0
-71 -70 0
65 70 71 0
-72 63 0
-72 71 0
-63 -71 72 0
73 -45 0
73 72 0
45 -72 -73 0
-74 42 0
-74 73 0
-42 -73 74 0
8 -75 -76 0
-8 75 -76 0
8 75 76 0
-8 -75 76 0
77 74 0
77 76 0
-74 -76 -77 0
-78 50 0
-78 46 0
-50 -46 78 0
-79 -78 0
-79 -78 0
78 79 0
-79 -8 -80 0
79 8 -80 0
-79 8 80 0
79 -8 80 0
-81 77 0
-81 -80 0
-77 80 81 0
47 29 -82 0
-47 -29 -82 0
47 -29 82 0
-47 29 82 0
82 8 -83 0
-82 -8 -83 0
82 -8 83 0
-82 8 83 0
-84 17 0
-84 4 0
-17 -4 84 0
85 79 0
85 10 0
-79 -10 -85 0
86 43 0
86 85 0
-43 -85 -86 0
84 -86 -87 0
-84 86 -87 0
84 86 87 0
-84 -86 87 0
-83 87 -88 0
83 -87 -88 0
-83 -87 88 0
83 87 88 0
-89 1 0
-89 -56 0
-1 56 89 0
-90 30 0
-90 -29 0
-30 29 90 0
91 52 0
91 -90 0
-52 90 -91 0
-92 -89 0
-92 -91 0
89 91 92 0
-93 -88 0
-93 92 0
88 -92 93 0
94 6 0
94 -6 0
-95 94 0
-95 7 0
-94 -7 95 0
-97 -94 0
-97 96 0
94 -96 97 0
-97 52 -98 0
97 -52 -98 0
-97 -52 98 0
97 52 98 0
-47 -98 -99 0
47 98 -99 0
-47 98 99 0
47 -98 99 0
-100 95 0
-100 -99 0
-95 99 100 0
-101 -55 0
-101 100 0
55 -100 101 0
103 -11 0
103 102 0
11 -102 -103 0
-104 -52 0
-104 -103 0
52 103 104 0
105 95 0
105 103 0
-95 -103 -105 0
106 104 0
106 -105 0
-104 105 -106 0
52 7 -107 0
-52 -7 -107 0
52 -7 107 0
-52 7 107 0
108 -107 0
108 -104 0
107 104 -108 0
-58 -108 -109 0
58 108 -109 0
-58 108 109 0
58 -108 109 0
-106 109 -110 0
106 -109 -110 0
-106 -109 110 0
106 109 110 0
111 101 0
111 -110 0
-101 110 -111 0
-112 -31 0
-112 -7 0
31 7 112 0
113 -112 0
113 -68 0
112 68 -113 0
-4 -17 -114 0
4 17 -114 0
-4 17 114 0
4 -17 114 0
-115 -29 0
-115 114 0
29 -114 115 0
-8 115 -116 0
8 -115 -116 0
-8 -115 116 0
8 115 116 0
-113 -116 -117 0
113 116 -117 0
-113 116 117 0
113 -116 117 0
-118 111 0
-118 117 0
-111 -117 118 0
93 -118 -119 0
-93 118 -119 0
93 118 119 0
-93 -118 119 0
-120 -97 0
-120 112 0
97 -112 120 0
100 -47 -121 0
-100 47 -121 0
100 47 121 0
-100 -47 121 0
122 4 0
122 -32 0
-4 32 -122 0
-123 -39 0
-123 -14 0
39 14 123 0
124 -122 0
124 -123 0
122 123 -124 0
125 121 0
125 124 0
-121 -124 -125 0
120 125 -126 0
-120 -125 -126 0
120 -125 126 0
-120 125 126 0
1 103 -127 0
-1 -103 -127 0
1 -103 127 0
-1 103 127 0
128 4 0
128 -20 0
-4 20 -128 0
127 -128 -129 0
-127 128 -129 0
127 128 129 0
-127 -128 129 0
2 -104 -130 0
-2 104 -130 0
2 104 130 0
-2 -104 130 0
-131 35 0
-131 -66 0
-35 66 131 0
-58 43 -132 0
58 -43 -132 0
-58 -43 132 0
58 43 132 0
-132 -78 -133 0
132 78 -133 0
-132 78 133 0
132 -78 133 0
-134 131 0
-134 133 0
-131 -133 134 0
135 -130 0
135 134 0
130 -134 -135 0
-129 135 -136 0
129 -135 -136 0
-129 -135 136 0
129 135 136 0
36 -21 -137 0
-36 21 -137 0
36 21 137 0
-36 -21 137 0
-136 137 -138 0
136 -137 -138 0
-136 -137 138 0
136 137 138 0
-139 126 0
-139 138 0
-126 -138 139 0
119 139 -140 0
-119 -139 -140 0
119 -139 140 0
-119 139 140 0
141 50 0
141 57 0
-50 -57 -141 0
142 1 0
142 -94 0
-1 94 -142 0
-143 -20 0
-143 -12 0
20 12 143 0
144 -142 0
144 -143 0
142 143 -144 0
50 -4 -145 0
-50 4 -145 0
50 4 145 0
-50 -4 145 0
144 -145 -146 0
-144 145 -146 0
144 145 146 0
-144 -145 146 0
147 -19 0
147 146 0
19 -146 -147 0
-148 -141 0
-148 -147 0
141 147 148 0
149 140 0
149 148 0
-140 -148 -149 0
81 -149 -150 0
-81 149 -150 0
81 149 150 0
-81 -149 150 0
141 31 -36 21 22 -95 0
131 -4 148 -144 123 8 0
59 58 0
20 45 100 -148 55 62 0
118 -32 5 0
113 -24 -92 99 125 0
126 -32 0
67 -107 125 -36 -48 0
-2 5 -58 103 -56 -39 0
25 50 34 0
115 -2 0
-131 -80 -44 -137 0
42 -132 -80 -92 -81 0
-149 107 -41 20 0
87 96 73 -108 149 15 0
-107 -82 89 149 144 0
144 121 0
61 3 -8 -125 82 9 0
-125 82 -52 0
10 -24 94 -102 108 0
32 -86 40 -23 0
-24 -77 0
-15 -123 81 -29 -1 0
133 -10 105 -74 86 0
-148 -115 0
148 -48 119 88 0
137 -18 -106 0
95 46 0
-98 36 5 137 45 111 0
91 33 127 84 -6 0
101 30 -145 0
-23 -97 -45 -131 0
57 116 13 16 -139 0
-87 -86 55 -144 139 -51 0
-118 115 -19 106 92 0
38 -103 -115 0
-81 35 0
40 -47 4 0
-76 -99 98 0
-83 109 -93 -97 13 0
-19 54 0
-36 75 -34 -55 -71 0
-81 34 15 -126 -66 14 0
43 147 33 -72 -82 0
44 49 -113 -112 0
-145 -108 17 0
-41 -117 -20 -56 121 -137 0
-57 -87 111 -138 -101 -146 0
-38 -92 -15 16 -115 -91 0
-93 -150 -60 36 -120 0
115 141 87 0
-123 73 20 0
-91 -132 -63 131 0
-66 -1 0
13 43 136 -40 0
137 -51 -135 0
-72 -90 0
83 133 -74 0
89 102 144 34 78 139 0
-79 14 0
-4 121 23 64 0
58 98 90 124 0
-13 48 0
123 110 106 -75 -15 0
-66 23 0
102 26 96 145 0
70 -101 -122 -51 0
150 0
